20
1 1 10 41.0 49.0
2 1 -7 35.0 17.0
3 1 13 55.0 45.0
4 1 19 55.0 20.0
5 1 26 15.0 30.0
6 1 3 25.0 30.0
7 1 5 20.0 50.0
8 1 -9 10.0 43.0
9 1 16 55.0 60.0
10 1 16 30.0 60.0
11 1 12 20.0 65.0
12 1 19 50.0 35.0
13 1 23 30.0 25.0
14 1 20 15.0 10.0
15 1 8 30.0 5.0
16 1 19 10.0 20.0
17 1 2 5.0 30.0
18 1 12 20.0 40.0
19 1 17 15.0 60.0
20 1 9 45.0 65.0
